(set-logic QF_LRA)
(declare-fun x1 () Real)
(declare-fun x2 () Real)
(declare-fun x3 () Real)
(declare-fun x4 () Real)
(declare-fun x5 () Real)
(declare-fun x6 () Real)
(declare-fun x7 () Real)
(declare-fun x8 () Real)
(declare-fun x9 () Real)
(declare-fun x10 () Real)

(assert (>= (- -7 ( + ( + (* -4 x1) (* 6 x2) ) (* 10 x3) )) 0))
(assert (>= (- 6 ( + ( + (* 3 x2) (* 10 x1) ) (* 4 x4) )) 0))
(assert (>= (- 6 ( + ( + (* 9 x2) (* -7 x1) ) (* -4 x5) )) 0))
(assert (>= (- -1 ( + ( + (* 3 x2) (* 3 x3) ) x6 )) 0))
(assert (>= (- -8 ( + ( + x3 (* 5 x2) ) (* 3 x7) )) 0))
(assert (>= (- -8 ( + ( + (* 2 x6) (* 4 x3) ) (* 2 x8) )) 0))
(assert (>= (- 6 ( + ( + x3 (* -5 x9) ) (* -10 x8) )) 0))
(assert (>= (- 9 ( + ( + (* 2 x10) (* -7 x3) ) (* 8 x8) )) 0))
(assert (>= (- 10 ( + ( + (* -10 x3) (* 8 x2) ) (* 10 x7) )) 0))
(assert (>= (- -5 ( + ( + (* 4 x3) (* 6 x1) ) (* 3 x2) )) 0))
(assert (>= (- -5 (* -7 x6)) 0))
(assert (>= (- -3 ( + (* -3 x7) (* -4 x2) )) 0))
(assert (>= (- -2 ( + ( + (* 10 x7) (* -4 x2) ) (* -5 x3) )) 0))
(assert (>= (- -5 ( + ( + (* -5 x2) (* 5 x1) ) (* -9 x3) )) 0))
(assert (>= (- 0 (* -10 x5)) 0))
(assert (>= (- 1 (* -9 x3)) 0))
(assert (>= (- 9 ( + ( + (* -10 x2) (* -6 x1) ) (* -8 x5) )) 0))
(assert (>= (- -5 ( + (* -8 x2) (* -1 x3) )) 0))
(assert (>= (- -4 (* 4 x3)) 0))
(assert (>= (- -5 (* 4 x2)) 0))
(check-sat)
(exit)